\ Model AlloyCombination
\ LP format - for model browsing. Use MPS format to capture full model detail.
Minimize
  5 X[0,0] + 5 X[0,1] + 5 X[0,2] + 5 X[0,3] + 5 X[0,4] + 10 X[1,0]
   + 10 X[1,1] + 10 X[1,2] + 10 X[1,3] + 10 X[1,4] + 9 X[2,0] + 9 X[2,1]
   + 9 X[2,2] + 9 X[2,3] + 9 X[2,4] + 7 X[3,0] + 7 X[3,1] + 7 X[3,2]
   + 7 X[3,3] + 7 X[3,4] + 8.5 X[4,0] + 8.5 X[4,1] + 8.5 X[4,2]
   + 8.5 X[4,3] + 8.5 X[4,4] + 20 Z[0,0] + 20 Z[0,1] + 20 Z[0,2]
   + 20 Z[0,3] + 20 Z[0,4] + 10 Z[1,0] + 10 Z[1,1] + 10 Z[1,2] + 10 Z[1,3]
   + 10 Z[1,4] + 5 Z[2,0] + 5 Z[2,1] + 5 Z[2,2] + 5 Z[2,3] + 5 Z[2,4]
Subject To
 con1[0]-: X[0,0] <= 90
 con1[0]-: X[0,1] <= 90
 con1[0]-: X[0,2] <= 90
 con1[0]-: X[0,3] <= 90
 con1[0]-: X[0,4] <= 90
 con1[1]-: X[1,0] <= 30
 con1[1]-: X[1,1] <= 30
 con1[1]-: X[1,2] <= 30
 con1[1]-: X[1,3] <= 30
 con1[1]-: X[1,4] <= 30
 con1[2]-: X[2,0] <= 50
 con1[2]-: X[2,1] <= 50
 con1[2]-: X[2,2] <= 50
 con1[2]-: X[2,3] <= 50
 con1[2]-: X[2,4] <= 50
 con1[3]-: X[3,0] <= 70
 con1[3]-: X[3,1] <= 70
 con1[3]-: X[3,2] <= 70
 con1[3]-: X[3,3] <= 70
 con1[3]-: X[3,4] <= 70
 con1[4]-: X[4,0] <= 20
 con1[4]-: X[4,1] <= 20
 con1[4]-: X[4,2] <= 20
 con1[4]-: X[4,3] <= 20
 con1[4]-: X[4,4] <= 20
 con2[0]-: Y[0,0] + Y[1,0] + Y[2,0] <= 100
 con2[1]-: Y[0,1] + Y[1,1] + Y[2,1] <= 100
 con2[2]-: Y[0,2] + Y[1,2] + Y[2,2] <= 100
 con2[3]-: Y[0,3] + Y[1,3] + Y[2,3] <= 100
 con2[4]-: Y[0,4] + Y[1,4] + Y[2,4] <= 100
 con3[0,0]-: Y[0,0] - Z[0,0] >= 25
 con3[0,1]-: Y[0,1] + Z[0,0] - Z[0,1] >= 25
 con3[0,2]-: Y[0,2] + Z[0,1] - Z[0,2] >= 0
 con3[0,3]-: Y[0,3] + Z[0,2] - Z[0,3] >= 0
 con3[0,4]-: Y[0,4] + Z[0,3] - Z[0,4] >= 0
 con3[1,0]-: Y[1,0] - Z[1,0] >= 10
 con3[1,1]-: Y[1,1] + Z[1,0] - Z[1,1] >= 10
 con3[1,2]-: Y[1,2] + Z[1,1] - Z[1,2] >= 10
 con3[1,3]-: Y[1,3] + Z[1,2] - Z[1,3] >= 10
 con3[1,4]-: Y[1,4] + Z[1,3] - Z[1,4] >= 10
 con3[2,0]-: Y[2,0] - Z[2,0] >= 5
 con3[2,1]-: Y[2,1] + Z[2,0] - Z[2,1] >= 20
 con3[2,2]-: Y[2,2] + Z[2,1] - Z[2,2] >= 80
 con3[2,3]-: Y[2,3] + Z[2,2] - Z[2,3] >= 25
 con3[2,4]-: Y[2,4] + Z[2,3] - Z[2,4] >= 50
 con4[0]-: - 0.18 X[0,0] - 0.25 X[1,0] - 0.15 X[2,0] - 0.14 X[3,0]
   + 0.18 Y[0,0] = 0
 con4[1]-: - 0.18 X[0,1] - 0.25 X[1,1] - 0.15 X[2,1] - 0.14 X[3,1]
   + 0.18 Y[0,1] = 0
 con4[2]-: - 0.18 X[0,2] - 0.25 X[1,2] - 0.15 X[2,2] - 0.14 X[3,2]
   + 0.18 Y[0,2] = 0
 con4[3]-: - 0.18 X[0,3] - 0.25 X[1,3] - 0.15 X[2,3] - 0.14 X[3,3]
   + 0.18 Y[0,3] = 0
 con4[4]-: - 0.18 X[0,4] - 0.25 X[1,4] - 0.15 X[2,4] - 0.14 X[3,4]
   + 0.18 Y[0,4] = 0
 con4[0]-: - 0.18 X[0,0] - 0.25 X[1,0] - 0.15 X[2,0] - 0.14 X[3,0]
   + 0.25 Y[1,0] = 0
 con4[1]-: - 0.18 X[0,1] - 0.25 X[1,1] - 0.15 X[2,1] - 0.14 X[3,1]
   + 0.25 Y[1,1] = 0
 con4[2]-: - 0.18 X[0,2] - 0.25 X[1,2] - 0.15 X[2,2] - 0.14 X[3,2]
   + 0.25 Y[1,2] = 0
 con4[3]-: - 0.18 X[0,3] - 0.25 X[1,3] - 0.15 X[2,3] - 0.14 X[3,3]
   + 0.25 Y[1,3] = 0
 con4[4]-: - 0.18 X[0,4] - 0.25 X[1,4] - 0.15 X[2,4] - 0.14 X[3,4]
   + 0.25 Y[1,4] = 0
 con4[0]-: - 0.18 X[0,0] - 0.25 X[1,0] - 0.15 X[2,0] - 0.14 X[3,0]
   + 0.15 Y[2,0] = 0
 con4[1]-: - 0.18 X[0,1] - 0.25 X[1,1] - 0.15 X[2,1] - 0.14 X[3,1]
   + 0.15 Y[2,1] = 0
 con4[2]-: - 0.18 X[0,2] - 0.25 X[1,2] - 0.15 X[2,2] - 0.14 X[3,2]
   + 0.15 Y[2,2] = 0
 con4[3]-: - 0.18 X[0,3] - 0.25 X[1,3] - 0.15 X[2,3] - 0.14 X[3,3]
   + 0.15 Y[2,3] = 0
 con4[4]-: - 0.18 X[0,4] - 0.25 X[1,4] - 0.15 X[2,4] - 0.14 X[3,4]
   + 0.15 Y[2,4] = 0
 con5[0]-: - 0.15 X[1,0] - 0.1 X[2,0] - 0.16 X[3,0] - 0.1 X[4,0] = 0
 con5[1]-: - 0.15 X[1,1] - 0.1 X[2,1] - 0.16 X[3,1] - 0.1 X[4,1] = 0
 con5[2]-: - 0.15 X[1,2] - 0.1 X[2,2] - 0.16 X[3,2] - 0.1 X[4,2] = 0
 con5[3]-: - 0.15 X[1,3] - 0.1 X[2,3] - 0.16 X[3,3] - 0.1 X[4,3] = 0
 con5[4]-: - 0.15 X[1,4] - 0.1 X[2,4] - 0.16 X[3,4] - 0.1 X[4,4] = 0
 con5[0]-: - 0.15 X[1,0] - 0.1 X[2,0] - 0.16 X[3,0] - 0.1 X[4,0]
   + 0.15 Y[1,0] = 0
 con5[1]-: - 0.15 X[1,1] - 0.1 X[2,1] - 0.16 X[3,1] - 0.1 X[4,1]
   + 0.15 Y[1,1] = 0
 con5[2]-: - 0.15 X[1,2] - 0.1 X[2,2] - 0.16 X[3,2] - 0.1 X[4,2]
   + 0.15 Y[1,2] = 0
 con5[3]-: - 0.15 X[1,3] - 0.1 X[2,3] - 0.16 X[3,3] - 0.1 X[4,3]
   + 0.15 Y[1,3] = 0
 con5[4]-: - 0.15 X[1,4] - 0.1 X[2,4] - 0.16 X[3,4] - 0.1 X[4,4]
   + 0.15 Y[1,4] = 0
 con5[0]-: - 0.15 X[1,0] - 0.1 X[2,0] - 0.16 X[3,0] - 0.1 X[4,0]
   + 0.1 Y[2,0] = 0
 con5[1]-: - 0.15 X[1,1] - 0.1 X[2,1] - 0.16 X[3,1] - 0.1 X[4,1]
   + 0.1 Y[2,1] = 0
 con5[2]-: - 0.15 X[1,2] - 0.1 X[2,2] - 0.16 X[3,2] - 0.1 X[4,2]
   + 0.1 Y[2,2] = 0
 con5[3]-: - 0.15 X[1,3] - 0.1 X[2,3] - 0.16 X[3,3] - 0.1 X[4,3]
   + 0.1 Y[2,3] = 0
 con5[4]-: - 0.15 X[1,4] - 0.1 X[2,4] - 0.16 X[3,4] - 0.1 X[4,4]
   + 0.1 Y[2,4] = 0
 con6[0]-: 0.15 X[1,0] + 0.1 X[2,0] + 0.16 X[3,0] + 0.1 X[4,0] - 0.1 Y[0,0]
   - 0.08 Y[1,0] = 0
 con6[1]-: 0.15 X[1,1] + 0.1 X[2,1] + 0.16 X[3,1] + 0.1 X[4,1] - 0.1 Y[0,1]
   - 0.08 Y[1,1] = 0
 con6[2]-: 0.15 X[1,2] + 0.1 X[2,2] + 0.16 X[3,2] + 0.1 X[4,2] - 0.1 Y[0,2]
   - 0.08 Y[1,2] = 0
 con6[3]-: 0.15 X[1,3] + 0.1 X[2,3] + 0.16 X[3,3] + 0.1 X[4,3] - 0.1 Y[0,3]
   - 0.08 Y[1,3] = 0
 con6[4]-: 0.15 X[1,4] + 0.1 X[2,4] + 0.16 X[3,4] + 0.1 X[4,4] - 0.1 Y[0,4]
   - 0.08 Y[1,4] = 0
 con7[0]-: 0.18 X[0,0] + 0.25 X[1,0] + 0.15 X[2,0] + 0.14 X[3,0]
   - 0.18 Y[0,0] - 0.18 Y[1,0] - 0.18 Y[2,0] = 0
 con7[1]-: 0.18 X[0,1] + 0.25 X[1,1] + 0.15 X[2,1] + 0.14 X[3,1]
   - 0.18 Y[0,1] - 0.18 Y[1,1] - 0.18 Y[2,1] = 0
 con7[2]-: 0.18 X[0,2] + 0.25 X[1,2] + 0.15 X[2,2] + 0.14 X[3,2]
   - 0.18 Y[0,2] - 0.18 Y[1,2] - 0.18 Y[2,2] = 0
 con7[3]-: 0.18 X[0,3] + 0.25 X[1,3] + 0.15 X[2,3] + 0.14 X[3,3]
   - 0.18 Y[0,3] - 0.18 Y[1,3] - 0.18 Y[2,3] = 0
 con7[4]-: 0.18 X[0,4] + 0.25 X[1,4] + 0.15 X[2,4] + 0.14 X[3,4]
   - 0.18 Y[0,4] - 0.18 Y[1,4] - 0.18 Y[2,4] = 0
Bounds
End
